p cnf 10 50
-6 10 -1 0
3 -8 -10 0
9 4 8 0
7 10 1 0
-8 3 4 0
3 -4 7 0
9 -2 -6 0
2 -3 -10 0
-3 -2 8 0
5 -2 -7 0
7 -6 5 0
2 10 9 0
4 9 -2 0
8 -10 3 0
-4 8 -10 0
-2 -3 -1 0
-3 -9 6 0
-2 8 6 0
-7 8 6 0
-5 -9 -6 0
-4 6 -8 0
-4 -3 5 0
-3 -1 -7 0
7 9 -3 0
-2 7 6 0
6 7 -10 0
-9 -8 5 0
10 3 -9 0
-7 -4 3 0
-5 3 -6 0
-7 -6 9 0
6 -10 -7 0
3 -9 10 0
5 4 1 0
-4 -6 -1 0
5 -3 9 0
-4 8 -9 0
-8 7 3 0
-6 -3 10 0
-7 -1 -9 0
10 -7 -3 0
-8 4 9 0
-6 -7 -4 0
5 -3 -2 0
7 9 -10 0
7 -3 -4 0
10 3 9 0
8 10 9 0
-8 9 -3 0
9 -3 -2 0